c Random Network
p max    10      20
n         1  s
n        10  t
a       7       9      17
a       1       7      36
a       1       2      43
a       1       9      15
a       9       1      21
a       2       1      25
a       7       3      13
a       9       7      44
a       7       8       6
a       6       2      11
a       2       4      48
a       3       4      33
a       7       5      17
a       6       5      43
a       1       3       4
a       4      10       3
a       3       1      31
a       7       1       6
a       1       6      29
a       4       8      10
